s td 312 19 582
b 1 2 172 362
b 2 6 304 332 464
b 3 23 36 172
b 4 36 172 178
b 5 47 54 90
b 6 54 90 474
b 7 87 453 470 575
b 8 90 91 346
b 9 122 150 401 513
b 10 123 261 343 508
b 11 139 170 394 479
b 12 159 199 221 245 286 301 423 434
b 13 164 279 322 522
b 14 185 217 312 538
b 15 62 193 506
b 16 26 119 229 568
b 17 26 119 217 312 538 568
b 18 157 240 293
b 19 280 288 289 366 382 487 511 563
b 20 13 298 303
b 21 26 217 312 538 568
b 22 337 407 424 489
b 23 98 131 344 514
b 24 98 131 267 428 514 570
b 25 137 356 367
b 26 357 368 501 557
b 27 56 403 408
b 28 105 404 442 572
b 29 363 421 446
b 30 131 199 428 555
b 31 341 503 525
b 32 166 544 553 565
b 33 26 217 280 431
b 34 26 217 431
b 35 456 507 579
b 36 234 252 501 539
b 37 234 501 557
b 38 131 237 267 428 570
b 39 131 237 428 555
b 40 352 395 409 424
b 41 352 407 424
b 42 51 63 67 178 265
b 43 51 63 178 265 305
b 44 309 341 413 525
b 45 157 293 374 383
b 46 250 313 427 474 517
b 47 250 313 467 474 517
b 48 13 299 303 445
b 49 62 95 506 527
b 50 3 7 12 135 158 188 197 249 290 307 331 398 486 505 528 529 536 540 558
b 51 7 12 135 158 188 249 290 307 331 360 398 486 505 528 529 536 540 554
b 52 7 135 158 188 249 290 307 331 360 388 398 425 486 505 536 540 554
b 53 7 135 158 249 290 307 360 388 398 425 472 486 536 540
b 54 7 249 260 307 360 398 425 472 486 536 540
b 55 7 97 260 307 360 398 472 486 536 540
b 56 7 97 260 261 360 472 486 536 540
b 57 7 9 261 360 472 486 540
b 58 7 9 61 360 472 540
b 59 3 7 12 158 188 197 249 290 307 326 331 398 486 505 529 536 540 558
b 60 7 12 158 188 197 249 290 295 307 326 398 486 505 529 536 540 558
b 61 7 12 158 188 197 249 258 290 295 307 326 398 486 505 529 540 558
b 62 7 12 30 158 188 197 258 290 295 326 455 486 505 529 540 558
b 63 7 12 30 158 258 290 295 326 455 486 505 529 558 578
b 64 7 12 30 89 158 258 290 295 326 455 505 529 558 578
b 65 11 97 307 483 486
b 66 97 307 398 483 486
b 67 16 69 151 463 559
b 68 16 144 151 463 559
b 69 110 225 230 419 537
b 70 182 225 230 419 537
b 71 7 77 191 201 316 335 360 371 393 406 473 540 555 566
b 72 77 114 191 201 316 335 393 406 473 540 555
b 73 10 112 114 167 191 198 201 243 316 335 393 406 426 464 473 474 478 540 555
b 74 10 43 112 114 167 198 243 254 256 311 342 399 406 426 447 473 474 478
b 75 43 65 112 114 161 167 198 243 254 256 306 311 342 399 426 447 473 474 478
b 76 43 65 112 114 161 167 198 243 254 256 306 311 342 399 400 426 473 474
b 77 43 65 112 161 167 198 243 254 256 306 311 315 342 399 400 426 473 474
b 78 43 58 65 112 161 167 198 243 254 256 306 311 315 342 399 400 426 473
b 79 43 58 65 112 161 167 219 243 254 256 306 311 315 342 399 400 426 473
b 80 43 58 65 112 161 167 219 243 254 306 311 315 342 399 400 426 458 473
b 81 74 167 219 315 458
b 82 43 58 65 112 161 219 243 254 306 311 315 342 399 400 426 436 458 473
b 83 43 58 65 112 161 219 243 254 300 306 311 342 399 400 426 436 458 473
b 84 43 58 65 112 161 219 243 254 300 306 311 342 399 426 436 458 473 546
b 85 43 58 65 112 161 219 243 254 300 306 311 399 426 436 458 510 546
b 86 43 65 219 243 254 300 306 311 426 436 510 556
b 87 10 43 254 256 311 342 399 406 447 474 491
b 88 10 112 167 191 198 201 233 243 316 335 393 406 426 464 473 474 478 540 555
b 89 10 112 167 198 233 243 334 406 426 464 473 474 478
b 90 237 474 555
b 91 7 61 77 191 316 360 371 393 406 540 555 566
b 92 45 48 51 61 72 77 86 179 191 210 236 316 364 371 385 392 393 555 566
b 93 39 45 48 51 61 72 77 86 179 210 236 364 371 385 392 393 555 566
b 94 29 39 45 48 51 61 72 77 210 236 277 323 345 364 371 385 392 393 566
b 95 29 45 48 61 77 127 210 236 277 323 345 349 364 371 385 392 393 566
b 96 29 45 48 61 77 127 210 236 277 292 323 349 364 371 392 393 397
b 97 29 48 77 127 142 210 236 263 292 323 349 364 371 392 393 397
b 98 29 35 48 127 142 210 236 263 292 349 371 392 393 397
b 99 19 29 35 48 127 142 236 263 292 349 371 392 393 397
b 100 45 48 51 63 72 86 117 179 191 210 236 316 364 385 392 393
b 101 45 48 51 56 63 86 117 191 210 236 316 364 385 392
b 102 45 48 51 56 63 86 117 210 236 305 316 364 385 392
b 103 48 51 56 63 86 210 305 316 327 392
b 104 48 56 86 210 327 408
b 105 63 72 117 179 393 507
b 106 63 72 179 393 456 507
b 107 7 61 360 406 472 540
b 108 7 175 201 335 360 371 473 566
b 109 175 335 360 473 534 566
b 110 175 319 335 473 534 566
b 111 94 319 335 473 534 566
b 112 7 175 201 371 418
b 113 4 15 59 66 85 162 169 209 223 244 248 283 375 384 438 440 450 461 574
b 114 15 59 66 85 162 209 223 244 248 283 375 384 389 438 440 450 498 574
b 115 15 59 85 162 209 223 244 283 376 384 389 438 440 450 476 498 574
b 116 15 40 59 85 376 389 438 450 476 574
b 117 40 59 85 170 376 389 450 476 574
b 118 28 59 170 450 476 574
b 119 28 59 125 170
b 120 15 162 209 223 242 244 283 376 384 440 476 498
b 121 15 223 242 244 376 384 405 440 498
b 122 4 85 107 169 244 248 283 438 461
b 123 4 15 59 66 85 162 169 209 222 223 375 384 438 440 450 461 574
b 124 4 15 59 66 147 162 169 209 222 223 375 384 438 440 450 461 574
b 125 4 59 66 109 147 162 169 209 222 223 375 440 450 461 574 580
b 126 4 59 66 109 147 162 209 222 223 361 375 461 574 580
b 127 4 66 109 147 162 209 213 222 223 361 375 461 574 580
b 128 34 57 176 358 477
b 129 34 57 358 477 542
b 130 22 216 294 386 448
b 131 22 257 294 386 448
b 132 22 37 41 194 228 235 297 320 324 338 348 370 380 386 462 466 482 500 561
b 133 22 37 194 228 235 297 320 324 338 348 370 380 386 448 462 466 482 561
b 134 22 37 194 235 257 297 320 324 338 348 370 380 386 448 462 466 482 561
b 135 37 92 194 235 257 297 320 324 338 348 370 380 386 448 462 466 482 561
b 136 37 82 92 194 235 257 297 320 324 338 348 370 380 448 462 466 482 561
b 137 37 82 92 235 257 297 320 324 338 348 370 380 415 448 462 466 482 561
b 138 37 82 92 235 257 320 324 329 338 348 370 380 415 448 462 466 482 561
b 139 37 50 82 92 235 257 320 324 329 338 348 370 380 415 462 466 482 561
b 140 37 50 82 257 262 329 380 415 462 482 561
b 141 50 92 235 320 324 329 338 348 370 415 466 494
b 142 82 92 194 297 387
b 143 22 41 194 228 235 297 302 324 348 370 380 386 432 462 466 482 500 561
b 144 22 41 194 228 297 302 348 370 386 432 462 466 482 500 548 561
b 145 22 41 194 228 302 336 348 370 386 432 462 466 482 500 548 561
b 146 22 181 194 228 302 336 370 466 482 500 548 561
b 147 181 228 278 302 482 500
b 148 22 181 194 228 302 482 500 513 548
b 149 34 57 96 148 155 160 266 274 319 321 335 358 410 417 518 519 542 567
b 150 34 96 148 155 160 177 266 274 319 321 335 358 410 417 518 519 542 567
b 151 34 79 94 96 148 155 160 177 266 319 321 335 358 417 518 519 542 567
b 152 34 79 94 96 148 155 177 220 266 319 335 358 417 519 542 567
b 153 34 79 94 96 148 155 177 220 266 310 319 335 358 519 542 567
b 154 34 94 96 155 177 220 266 310 319 335 358 534
b 155 34 94 105 177 220 319 335 358 534
b 156 94 105 319 335 358 534 566
b 157 105 259 358 566
b 158 173 177 274 410 417
b 159 57 96 116 148 155 160 266 274 319 321 335 358 390 410 417 449 518 519 567
b 160 116 148 155 160 266 274 319 335 358 390 417 449 518 519 535 567
b 161 116 155 160 212 266 274 319 335 358 390 417 452 518 519 535 567
b 162 116 155 160 212 266 274 335 358 417 452 518 519 535 562
b 163 116 155 160 212 266 274 335 417 452 460 518 519 535 562
b 164 15 40 59 308 350
b 165 15 40 59 350 438
b 166 146 391 402 420 437
b 167 146 152 402 420 437
b 168 8 16 18 55 88 102 121 140 141 174 187 272 314 359 412 515 523 541 559
b 169 8 16 140 187 272 314 365 412 515 523 559
b 170 8 16 140 187 231 272 314 365 515 559
b 171 16 140 187 231 272 314 515 559 575
b 172 133 187 272 314 559 575
b 173 133 441 559 575
b 174 8 16 18 55 88 102 121 141 174 359 412 463 488 515 523 541 559
b 175 16 18 102 141 144 359 412 463 488 515 523 541 559
b 176 18 102 141 144 273 359 488 515 541
b 177 18 55 88 102 121 140 141 174 187 214 272 296 314 359 412 523 541 559
b 178 88 102 121 140 141 174 187 214 270 296 314 359 412 480 523 541 559
b 179 102 121 140 165 174 187 214 218 270 296 359 412 480 523 541 559
b 180 121 165 187 214 218 270 296 359 412 480 497 523 541 559
b 181 121 165 187 195 214 218 270 296 359 412 480 497 523 541
b 182 198 256 400 471 509
b 183 58 198 256 400 509
b 184 5 14 17 25 42 146 152 189 239 246 268 433 475 484 502 504 532 551 581
b 185 5 17 25 42 146 152 189 192 211 239 246 433 475 484 502 504 532 581
b 186 5 25 42 93 146 152 171 189 192 211 239 246 433 475 484 504 532
b 187 5 25 93 146 152 171 192 211 239 246 420 433 475 484 499 504
b 188 5 25 146 152 171 192 239 402 420 433 499 504
b 189 5 25 44 146 171 192 239 402 433 499 504
b 190 44 146 153 171 192 239 402 433 499 504
b 191 146 153 171 192 239 322 402 433 504
b 192 75 146 171 192 239 322 433
b 193 75 146 322 485
b 194 5 14 17 25 42 146 152 189 246 268 433 484 502 504 532 551 581 582
b 195 14 17 25 42 146 152 189 246 268 318 433 484 502 504 532 551 581 582
b 196 14 17 25 42 152 189 246 268 285 318 433 484 502 504 532 551 581 582
b 197 14 17 25 42 152 189 246 268 285 318 502 504 512 532 551 581 582
b 198 14 17 25 42 189 246 268 318 492 502 512 582
b 199 31 68 73 108 124 149 156 182 287 328 339 418 419 443 524 537 545 547 552
b 200 31 73 108 124 149 156 182 287 328 339 419 443 524 537 545 547 552 560
b 201 31 73 108 124 149 156 182 287 328 339 379 419 443 537 545 547 552 560
b 202 31 73 108 124 149 156 287 328 339 378 379 419 443 537 545 547 552 560
b 203 31 73 108 149 154 156 287 328 339 378 379 419 443 537 545 547 552 560
b 204 31 73 108 120 149 154 156 287 328 339 378 379 419 443 537 545 547 552
b 205 31 73 108 120 149 154 156 255 287 328 339 378 379 419 443 545 547 552
b 206 31 73 120 149 154 207 255 287 339 378 419 547
b 207 31 73 207 255 282 287 339 378 419
b 208 124 208 378 379 560
b 209 31 68 108 124 149 156 175 182 287 325 339 418 419 443 524 537 547 552
b 210 31 68 108 124 149 175 182 287 325 414 418 419 443 524 537 547
b 211 31 108 124 149 175 182 201 414 418 419 443 524 537
b 212 124 149 175 182 201 225 418 419 524 537
b 213 124 149 166 175 201 225 418 524 537
b 214 166 175 201 418 537 569
b 215 175 201 371 418 569
b 216 13 200 299 303 333 407
b 217 200 299 303 333 347 407
b 218 200 299 333 347 352 407 516
b 219 200 333 347 352 407 429 495 516 526
b 220 118 200 204 333 347 407 429 495 516 526 530
b 221 24 118 200 204 429 495 516 526 530
b 222 24 429 495 521 526
b 223 53 83 118 204 264 333 347 353 407 429 465 495 526 530 577
b 224 53 81 83 118 264 333 353 465 526 577
b 225 53 70 83 132 180 204 264 347 353 407 429 435 465 495 530 577
b 226 70 83 106 132 180 204 347 353 435 495
b 227 53 70 132 180 264 355 407 429 435 465 495 496 530 577
b 228 53 70 180 355 407 429 435 465 490 495 496 530 577
b 229 53 70 126 180 355 429 435 465 490 495 496 530 577
b 230 62 95 130 393 506 557
b 231 95 128 130 393 506 557
b 232 95 128 130 191 234 393 557
b 233 27 128 130 186 190 191 234 393 557
b 234 27 48 72 117 128 130 186 190 191 393 557
b 235 27 48 72 117 186 190 191 210 393
b 236 27 186 190 210 232
b 237 27 48 52 72 117 128 130 168 186 190 291 373 396 422 557
b 238 27 52 100 117 130 168 291 373 396 422
b 239 48 52 72 99 111 128 168 186 190 271 291 373 396 416 422 557
b 240 72 76 99 111 128 190 271 291 416 422
b 241 48 52 99 111 136 168 186 190 271 373 396 416 533 557
b 242 48 52 99 111 136 168 186 190 373 416 520 533 557
b 243 21 48 52 99 111 136 168 186 190 373 416 520 533
b 244 71 80 84 113 184 313 459 469
b 245 24 28 33 75 78 133 200 204 206 237 269 278 313 430 431 451 530 543 576
b 246 24 28 75 78 133 200 204 206 237 269 278 313 411 430 451 530 564 576
b 247 24 28 38 75 200 204 205 206 237 269 278 313 411 430 444 451 530 564 576
b 248 24 28 38 75 200 205 206 237 269 278 317 411 430 444 468 530 576
b 249 24 38 75 101 145 200 206 237 278 317 411 430 444 468 530 576
b 250 24 38 101 145 200 237 238 278 317 411 430 468 530 576
b 251 38 101 145 200 226 237 238 278 317 411 430 468 530 576
b 252 24 28 33 49 75 78 133 200 204 206 237 269 278 313 430 431 530 543 576
b 253 24 33 49 78 118 200 204 206 237 250 269 313 430 530 543 576
b 254 24 33 49 78 118 200 204 206 237 250 269 313 430 516 530 576
b 255 24 33 49 78 118 206 237 250 269 313 363 430 516 530 576
b 256 24 33 49 78 118 206 237 250 269 313 363 430 467 516 576
b 257 24 49 115 237 250 313 363 430 467 516
b 258 24 113 115 237 250 313 363 430 467
b 259 113 115 183 237 250 293 313 354 381 430 439 467 469 493
b 260 71 84 113 183 184 250 313 354 381 430 439 459 469 493
b 261 71 84 113 183 184 250 284 351 354 381 430 439 459 493
b 262 71 113 163 183 184 215 250 284 351 354 430 439 459 493
b 263 71 113 138 163 183 184 215 250 284 351 354 430 493 531
b 264 71 113 138 163 215 250 284 340 351 354 430 493 531
b 265 71 138 163 215 250 251 284 340 351 354 430 493 531
b 266 113 115 183 237 250 293 313 354 381 439 467 469 474 493
b 267 113 115 183 250 293 354 381 383 439 467 469 474 493
b 268 113 115 183 293 346 354 381 383 439 467 469 474 493
b 269 113 115 134 293 346 383 469 474 493
b 270 90 115 134 346 383 469 474 493
b 271 115 157 183 293 346 354 381 383 439 467
b 272 33 78 118 206 269 363 446 467 516 576
b 273 118 200 204 250 367 543
b 274 118 137 200 250 367 543
b 275 51 60 247 327 377 457 549 573
b 276 72 76 111 128 190 271 291 454
b 277 106 132 204 347 353 435 495 571
b 278 63 172 316 341 413 525
b 279 63 172 178 202 316 327 341 362 525 573
b 280 63 178 202 316 327 341 362 392 525 573
b 281 51 63 178 202 305 316 327 362 392 525 573
b 282 51 63 202 305 316 327 362 392 525 573
b 283 1 51 63 104 202 253 275 305 327 362 372 392 457 525 573
b 284 1 104 224 253 275 305 362 372 457 525
b 285 1 51 63 103 104 202 247 253 275 327 369 372 392 457 549 573
b 286 51 60 103 247 253 327 369 457 549 573
b 287 1 63 103 104 202 247 275 281 327 369 372 392 481 549
b 288 1 46 63 103 104 202 275 281 327 369 392 481 549
b 289 1 46 103 104 202 275 281 327 330 369 392 481 549
b 290 172 178 202 203 327 341 362 573
b 291 7 20 97 260 261 360 472 536 540
b 292 32 39 61 77 86 179 371 555 566
b 293 64 167 198 334 406 464 473 474 478
b 294 22 129 181 194 302 482 500 513 548
b 295 34 94 105 143 177 220 319 335 534
b 296 40 85 170 196 376 389 450 476 574
b 297 28 33 75 133 227 278 431 451 543
b 298 124 149 166 175 201 225 241 418 524
b 299 16 140 187 231 272 276 314 515 575
b 300 153 171 192 239 322 402 433 504 550
b 301 49 133 187 272 314
b 302 49 133 187 272 482
b 303 49 133 171 272 482
b 304 49 75 133 171 181 239 482
b 305 28 49 75 133 181 239 302 482
b 306 28 49 75 133 181 278 302 482
b 307 49 181 278 302 482 500
b 308 28 49 239 302 574
b 309 28 49 239 476 574
b 310 28 49 450 476 574
b 311 49 75 171 181 192 239
b 312 49 75 171 192 239 433
1 279
2 73
3 4
4 279
5 6
6 270
7 171
8 270
9 148
10 56
11 117
12 30
13 191
14 21
15 230
16 17
17 21
18 271
19 33
20 216
21 34
22 41
23 24
24 38
25 274
26 37
27 104
28 155
29 272
30 39
31 278
32 213
33 34
34 245
35 106
36 37
37 232
38 39
39 90
40 41
41 218
42 43
43 281
44 278
45 271
46 47
47 266
48 216
49 230
50 51
50 59
51 52
52 53
53 54
54 55
55 66
55 56
56 291
56 57
57 58
58 107
59 60
60 61
61 62
62 63
63 64
65 66
67 68
68 175
69 70
70 212
71 72
71 91
71 108
72 73
73 74
73 88
73 90
74 75
74 87
75 76
76 77
77 78
78 183
78 79
79 80
80 81
80 82
82 83
83 84
84 85
85 86
88 89
89 293
90 266
91 92
91 107
92 93
92 100
93 292
93 94
94 95
95 96
96 97
97 98
98 99
100 235
100 101
100 105
101 102
102 103
103 281
103 104
105 106
108 109
108 112
109 110
110 111
111 156
112 215
113 114
113 122
113 123
114 115
115 116
115 120
116 165
116 117
117 296
117 118
118 310
118 119
120 121
123 124
124 125
125 126
126 127
128 129
129 149
130 131
131 134
132 133
132 143
133 134
134 135
135 136
136 137
136 142
137 138
138 139
139 140
139 141
143 144
144 145
145 146
146 147
146 148
147 307
148 294
149 150
149 159
150 151
150 158
151 152
152 153
153 154
154 155
155 295
155 156
156 157
159 160
160 161
161 162
162 163
164 165
166 167
167 188
168 169
168 174
168 177
169 170
170 171
171 299
171 172
172 301
172 173
174 175
175 176
177 178
178 179
179 180
180 181
182 183
184 185
184 194
185 186
186 187
187 188
188 189
189 190
190 191
191 300
191 192
192 312
192 193
194 195
195 196
196 197
197 198
199 200
199 209
200 201
201 202
202 203
202 208
203 204
204 205
205 206
206 207
209 210
210 211
211 212
212 213
213 298
213 214
214 215
216 217
217 218
218 219
219 220
220 223
220 221
221 254
221 222
223 224
223 225
225 226
225 227
226 277
227 228
228 229
230 231
231 232
232 233
233 234
234 237
234 235
235 236
237 238
237 239
239 240
239 241
240 276
241 242
242 243
244 260
245 297
245 246
245 252
246 247
247 248
248 249
249 250
250 251
252 306
252 253
253 254
253 273
254 255
255 256
256 257
256 272
257 258
258 259
259 260
259 266
260 261
261 262
262 263
263 264
264 265
266 267
267 268
268 269
268 271
269 270
273 274
275 286
278 279
279 290
279 280
280 281
281 282
282 283
283 284
283 285
285 286
285 287
287 288
288 289
301 302
302 303
303 304
304 311
304 305
305 308
305 306
306 307
308 309
309 310
311 312
